% seed = 1375958

mint = 85;
% maxt = 267;

nActs = 42;
dur = [0,10,9,7,2,7,4,8,2,10,10,8,9,9,9,3,5,3,5,3,1,4,8,9,3,9,5,10,9,7,3,6,7,9,6,8,7,4,10,10,9,0];

nSkills = 4;
sreq = [| 0,0,0,0,
	| 0,0,4,4,
	| 7,0,0,4,
	| 2,0,4,0,
	| 2,7,0,0,
	| 7,0,0,3,
	| 0,4,0,2,
	| 0,4,0,6,
	| 0,4,4,0,
	| 0,0,1,1,
	| 0,0,3,5,
	| 0,2,2,0,
	| 0,4,0,3,
	| 7,0,0,4,
	| 0,0,4,7,
	| 2,3,0,0,
	| 0,7,0,2,
	| 0,0,5,6,
	| 4,3,0,0,
	| 4,1,0,0,
	| 0,0,7,3,
	| 4,0,7,0,
	| 3,0,6,0,
	| 3,3,0,0,
	| 4,1,0,0,
	| 0,4,0,3,
	| 2,3,0,0,
	| 3,2,0,0,
	| 6,0,0,5,
	| 6,0,0,5,
	| 3,4,0,0,
	| 2,0,6,0,
	| 5,0,4,0,
	| 0,4,0,4,
	| 0,3,0,6,
	| 3,7,0,0,
	| 5,0,0,4,
	| 4,1,0,0,
	| 7,6,0,0,
	| 0,3,3,0,
	| 0,4,4,0,
	| 0,0,0,0, |];

nResources = 30;
mastery = [| true,false,true,true,
	| false,true,true,false,
	| true,false,true,false,
	| false,false,true,false,
	| false,true,false,true,
	| true,true,true,false,
	| true,false,true,false,
	| false,false,true,true,
	| false,true,true,false,
	| false,false,true,false,
	| true,true,false,false,
	| true,true,false,false,
	| false,false,true,false,
	| true,false,false,true,
	| true,false,false,false,
	| false,true,false,false,
	| false,true,false,false,
	| true,true,false,false,
	| true,false,false,true,
	| false,true,false,false,
	| false,false,true,false,
	| true,false,true,false,
	| true,false,true,false,
	| true,true,false,false,
	| false,true,true,true,
	| false,true,true,true,
	| false,true,false,true,
	| true,false,true,true,
	| true,false,false,true,
	| false,false,false,true, |];

nPrecs = 73;
pred = [1,1,1,2,2,2,3,3,3,4,4,4,5,5,5,6,6,7,7,8,8,8,9,9,10,11,11,11,12,12,13,13,14,15,16,16,16,17,17,18,18,19,19,20,21,22,22,23,23,24,25,25,26,27,28,28,29,29,30,31,31,32,33,33,34,34,35,36,37,38,39,40,41];
succ = [2,3,4,9,17,33,27,22,7,5,6,16,29,13,31,18,11,25,8,10,28,14,36,15,12,28,23,24,17,31,35,37,39,18,20,21,31,19,21,27,38,26,20,34,41,25,26,35,37,40,33,32,34,28,37,30,41,34,32,32,40,35,41,38,36,38,36,39,40,39,42,42,42];

nUnrels = 461;
unpred = [2,2,2,2,2,2,2,2,2,2,2,2,2,2,2,2,2,2,3,3,3,3,3,3,3,3,3,3,3,3,4,4,4,4,4,4,4,4,4,4,4,4,4,5,5,5,5,5,5,5,5,5,5,5,5,5,5,5,5,5,5,5,5,5,5,5,5,6,6,6,6,6,6,6,6,6,6,6,6,6,6,6,6,6,6,6,6,6,7,7,7,7,7,7,7,7,7,7,7,8,8,8,8,8,8,8,8,8,8,8,8,8,9,9,9,9,9,9,9,9,9,9,9,9,9,9,9,9,9,9,9,9,10,10,10,10,10,10,10,10,10,10,10,10,10,10,10,10,11,11,11,11,11,11,11,11,11,11,11,11,11,11,11,11,11,11,11,11,12,12,12,12,12,12,12,12,12,12,12,12,12,12,12,13,13,13,13,13,13,13,13,13,13,13,13,13,13,13,13,13,13,13,13,13,13,13,14,14,14,14,14,14,14,14,14,14,14,14,14,14,14,14,14,14,14,14,14,14,14,14,14,14,15,15,15,15,15,15,15,15,15,15,15,15,15,15,15,16,16,16,16,16,16,16,16,16,16,16,16,16,16,17,17,17,17,17,17,17,17,17,17,17,17,17,17,17,18,18,18,18,18,18,18,18,18,18,18,18,18,19,19,19,19,19,19,19,19,19,19,19,19,19,19,19,19,20,20,20,20,20,20,20,20,20,20,20,20,20,20,20,20,20,21,21,21,21,21,21,21,21,21,21,21,21,21,21,21,21,21,21,21,22,22,22,22,22,22,22,22,22,23,23,23,23,23,23,23,23,23,23,23,23,23,24,24,24,24,24,24,24,24,24,24,24,24,24,24,24,24,25,25,25,25,25,25,25,25,25,26,26,26,26,26,26,26,26,26,26,26,27,27,27,27,27,27,28,28,28,28,28,28,29,29,29,29,29,29,29,30,30,30,30,30,30,30,31,31,31,31,31,32,32,32,32,32,32,33,33,33,33,33,34,34,34,34,35,35,35,35,36,36,36,36,37,37,37,38,38,39,39,40];
unsucc = [3,4,5,6,7,8,10,11,12,13,14,16,22,23,24,25,29,31,4,5,6,9,11,13,15,16,18,23,24,29,7,8,9,10,12,14,15,17,19,22,25,26,33,6,7,8,9,10,11,12,14,15,16,17,18,19,20,21,22,23,24,25,26,27,28,30,33,7,8,9,10,12,13,14,15,16,17,19,20,21,22,25,26,29,31,33,34,41,9,11,13,15,16,18,22,23,24,27,29,9,11,13,15,16,18,22,23,24,25,27,29,33,10,11,12,13,14,16,17,19,20,21,22,23,24,25,26,29,31,33,34,41,11,13,14,15,16,18,22,23,24,25,27,28,29,30,33,37,12,13,14,15,16,17,18,19,20,21,22,25,26,27,29,31,33,34,38,41,13,14,15,16,18,22,23,24,25,27,28,29,30,33,37,14,15,16,17,18,19,20,21,22,23,24,25,26,27,28,29,30,31,32,33,34,38,41,15,16,17,18,19,20,21,22,23,24,25,26,27,28,29,30,31,32,33,34,35,36,37,38,40,41,16,17,19,20,21,22,23,24,25,26,29,31,33,34,41,17,18,19,22,23,24,25,26,27,28,29,30,33,37,18,22,23,24,25,27,28,29,30,31,32,33,35,37,40,19,20,21,22,23,24,25,26,29,31,33,34,41,21,22,23,24,25,27,28,29,30,31,32,33,35,37,40,41,21,22,23,24,25,26,27,28,29,30,31,32,33,35,37,40,41,22,23,24,25,26,27,28,29,30,31,32,33,34,35,36,37,38,39,40,23,24,27,28,29,30,31,37,40,24,25,26,27,28,29,30,31,32,33,34,38,41,25,26,27,28,29,30,31,32,33,34,35,36,37,38,39,41,26,27,28,29,30,31,34,37,40,27,28,29,30,31,32,33,35,37,40,41,29,31,33,34,38,41,29,31,33,34,38,41,30,31,32,33,35,37,40,31,33,34,37,38,40,41,33,34,37,38,41,33,34,37,38,40,41,34,35,36,37,40,35,37,40,41,37,38,40,41,37,38,40,41,38,39,41,40,41,40,41,41];

USEFUL_RES = [{},
	{1,2,3,4,5,6,7,8,9,10,13,14,19,21,22,23,25,26,27,28,29,30},
	{1,3,5,6,7,8,11,12,14,15,18,19,22,23,24,25,26,27,28,29,30},
	{1,2,3,4,6,7,8,9,10,11,12,13,14,15,18,19,21,22,23,24,25,26,28,29},
	{1,2,3,5,6,7,9,11,12,14,15,16,17,18,19,20,22,23,24,25,26,27,28,29},
	{1,3,5,6,7,8,11,12,14,15,18,19,22,23,24,25,26,27,28,29,30},
	{1,2,5,6,8,9,11,12,14,16,17,18,19,20,24,25,26,27,28,29,30},
	{1,2,5,6,8,9,11,12,14,16,17,18,19,20,24,25,26,27,28,29,30},
	{1,2,3,4,5,6,7,8,9,10,11,12,13,16,17,18,20,21,22,23,24,25,26,27,28},
	{1,2,3,4,5,6,7,8,9,10,13,14,19,21,22,23,25,26,27,28,29,30},
	{1,2,3,4,5,6,7,8,9,10,13,14,19,21,22,23,25,26,27,28,29,30},
	{1,2,3,4,5,6,7,8,9,10,11,12,13,16,17,18,20,21,22,23,24,25,26,27,28},
	{1,2,5,6,8,9,11,12,14,16,17,18,19,20,24,25,26,27,28,29,30},
	{1,3,5,6,7,8,11,12,14,15,18,19,22,23,24,25,26,27,28,29,30},
	{1,2,3,4,5,6,7,8,9,10,13,14,19,21,22,23,25,26,27,28,29,30},
	{1,2,3,5,6,7,9,11,12,14,15,16,17,18,19,20,22,23,24,25,26,27,28,29},
	{1,2,5,6,8,9,11,12,14,16,17,18,19,20,24,25,26,27,28,29,30},
	{1,2,3,4,5,6,7,8,9,10,13,14,19,21,22,23,25,26,27,28,29,30},
	{1,2,3,5,6,7,9,11,12,14,15,16,17,18,19,20,22,23,24,25,26,27,28,29},
	{1,2,3,5,6,7,9,11,12,14,15,16,17,18,19,20,22,23,24,25,26,27,28,29},
	{1,2,3,4,5,6,7,8,9,10,13,14,19,21,22,23,25,26,27,28,29,30},
	{1,2,3,4,6,7,8,9,10,11,12,13,14,15,18,19,21,22,23,24,25,26,28,29},
	{1,2,3,4,6,7,8,9,10,11,12,13,14,15,18,19,21,22,23,24,25,26,28,29},
	{1,2,3,5,6,7,9,11,12,14,15,16,17,18,19,20,22,23,24,25,26,27,28,29},
	{1,2,3,5,6,7,9,11,12,14,15,16,17,18,19,20,22,23,24,25,26,27,28,29},
	{1,2,5,6,8,9,11,12,14,16,17,18,19,20,24,25,26,27,28,29,30},
	{1,2,3,5,6,7,9,11,12,14,15,16,17,18,19,20,22,23,24,25,26,27,28,29},
	{1,2,3,5,6,7,9,11,12,14,15,16,17,18,19,20,22,23,24,25,26,27,28,29},
	{1,3,5,6,7,8,11,12,14,15,18,19,22,23,24,25,26,27,28,29,30},
	{1,3,5,6,7,8,11,12,14,15,18,19,22,23,24,25,26,27,28,29,30},
	{1,2,3,5,6,7,9,11,12,14,15,16,17,18,19,20,22,23,24,25,26,27,28,29},
	{1,2,3,4,6,7,8,9,10,11,12,13,14,15,18,19,21,22,23,24,25,26,28,29},
	{1,2,3,4,6,7,8,9,10,11,12,13,14,15,18,19,21,22,23,24,25,26,28,29},
	{1,2,5,6,8,9,11,12,14,16,17,18,19,20,24,25,26,27,28,29,30},
	{1,2,5,6,8,9,11,12,14,16,17,18,19,20,24,25,26,27,28,29,30},
	{1,2,3,5,6,7,9,11,12,14,15,16,17,18,19,20,22,23,24,25,26,27,28,29},
	{1,3,5,6,7,8,11,12,14,15,18,19,22,23,24,25,26,27,28,29,30},
	{1,2,3,5,6,7,9,11,12,14,15,16,17,18,19,20,22,23,24,25,26,27,28,29},
	{1,2,3,5,6,7,9,11,12,14,15,16,17,18,19,20,22,23,24,25,26,27,28,29},
	{1,2,3,4,5,6,7,8,9,10,11,12,13,16,17,18,20,21,22,23,24,25,26,27,28},
	{1,2,3,4,5,6,7,8,9,10,11,12,13,16,17,18,20,21,22,23,24,25,26,27,28},
	{}];

POTENTIAL_ACT = [{2,3,4,5,6,7,8,9,10,11,12,13,14,15,16,17,18,19,20,21,22,23,24,25,26,27,28,29,30,31,32,33,34,35,36,37,38,39,40,41},
	{2,4,5,7,8,9,10,11,12,13,15,16,17,18,19,20,21,22,23,24,25,26,27,28,31,32,33,34,35,36,38,39,40,41},
	{2,3,4,5,6,9,10,11,12,14,15,16,18,19,20,21,22,23,24,25,27,28,29,30,31,32,33,36,37,38,39,40,41},
	{2,4,9,10,11,12,15,18,21,22,23,32,33,40,41},
	{2,3,5,6,7,8,9,10,11,12,13,14,15,16,17,18,19,20,21,24,25,26,27,28,29,30,31,34,35,36,37,38,39,40,41},
	{2,3,4,5,6,7,8,9,10,11,12,13,14,15,16,17,18,19,20,21,22,23,24,25,26,27,28,29,30,31,32,33,34,35,36,37,38,39,40,41},
	{2,3,4,5,6,9,10,11,12,14,15,16,18,19,20,21,22,23,24,25,27,28,29,30,31,32,33,36,37,38,39,40,41},
	{2,3,4,6,7,8,9,10,11,12,13,14,15,17,18,21,22,23,26,29,30,32,33,34,35,37,40,41},
	{2,4,5,7,8,9,10,11,12,13,15,16,17,18,19,20,21,22,23,24,25,26,27,28,31,32,33,34,35,36,38,39,40,41},
	{2,4,9,10,11,12,15,18,21,22,23,32,33,40,41},
	{3,4,5,6,7,8,9,12,13,14,16,17,19,20,22,23,24,25,26,27,28,29,30,31,32,33,34,35,36,37,38,39,40,41},
	{3,4,5,6,7,8,9,12,13,14,16,17,19,20,22,23,24,25,26,27,28,29,30,31,32,33,34,35,36,37,38,39,40,41},
	{2,4,9,10,11,12,15,18,21,22,23,32,33,40,41},
	{2,3,4,5,6,7,8,10,11,13,14,15,16,17,18,19,20,21,22,23,24,25,26,27,28,29,30,31,32,33,34,35,36,37,38,39},
	{3,4,5,6,14,16,19,20,22,23,24,25,27,28,29,30,31,32,33,36,37,38,39},
	{5,7,8,9,12,13,16,17,19,20,24,25,26,27,28,31,34,35,36,38,39,40,41},
	{5,7,8,9,12,13,16,17,19,20,24,25,26,27,28,31,34,35,36,38,39,40,41},
	{3,4,5,6,7,8,9,12,13,14,16,17,19,20,22,23,24,25,26,27,28,29,30,31,32,33,34,35,36,37,38,39,40,41},
	{2,3,4,5,6,7,8,10,11,13,14,15,16,17,18,19,20,21,22,23,24,25,26,27,28,29,30,31,32,33,34,35,36,37,38,39},
	{5,7,8,9,12,13,16,17,19,20,24,25,26,27,28,31,34,35,36,38,39,40,41},
	{2,4,9,10,11,12,15,18,21,22,23,32,33,40,41},
	{2,3,4,5,6,9,10,11,12,14,15,16,18,19,20,21,22,23,24,25,27,28,29,30,31,32,33,36,37,38,39,40,41},
	{2,3,4,5,6,9,10,11,12,14,15,16,18,19,20,21,22,23,24,25,27,28,29,30,31,32,33,36,37,38,39,40,41},
	{3,4,5,6,7,8,9,12,13,14,16,17,19,20,22,23,24,25,26,27,28,29,30,31,32,33,34,35,36,37,38,39,40,41},
	{2,3,4,5,6,7,8,9,10,11,12,13,14,15,16,17,18,19,20,21,22,23,24,25,26,27,28,29,30,31,32,33,34,35,36,37,38,39,40,41},
	{2,3,4,5,6,7,8,9,10,11,12,13,14,15,16,17,18,19,20,21,22,23,24,25,26,27,28,29,30,31,32,33,34,35,36,37,38,39,40,41},
	{2,3,5,6,7,8,9,10,11,12,13,14,15,16,17,18,19,20,21,24,25,26,27,28,29,30,31,34,35,36,37,38,39,40,41},
	{2,3,4,5,6,7,8,9,10,11,12,13,14,15,16,17,18,19,20,21,22,23,24,25,26,27,28,29,30,31,32,33,34,35,36,37,38,39,40,41},
	{2,3,4,5,6,7,8,10,11,13,14,15,16,17,18,19,20,21,22,23,24,25,26,27,28,29,30,31,32,33,34,35,36,37,38,39},
	{2,3,6,7,8,10,11,13,14,15,17,18,21,26,29,30,34,35,37}];
